(set-option :print-success false)
(set-logic QF_UF)
(declare-sort x32 0)
(declare-sort x118 0)
(declare-fun x9 () x118)
(declare-fun x144 () x118)
(declare-fun x119 (x118 x118) x118)
(declare-fun x156 () x118)
(declare-fun x97 () x118)
(declare-fun x11 () x118)
(declare-fun x132 (x118 x118) x118)
(assert (and (and (not (= x9 x97)) (and (not (= x97 x156)) (and (not (= x144 x9)) (and (not (= x144 x156)) (and (and (and (and (not (= x11 x144)) (not (= x97 x11))) (not (= x156 x11))) (not (= x11 x9))) (not (= x144 x97))))))) (not (= x156 x9))))
(assert (and (and (and (not (= x97 (x132 x97 x97))) (and (not (= (x132 x11 x11) x11)) (not (= x144 (x132 x144 x144))))) (not (= (x132 x156 x156) x156))) (not (= x9 (x132 x9 x9)))))
(assert (let ((x47 (x132 x156 x156)) (x124 (x132 x9 x9)) (x96 (x132 x11 x11)) (x65 (x132 x97 x97)) (x85 (x132 x144 x144))) (and (and (not (= (x132 x9 x124) x9)) (and (not (= (x132 x9 x47) x9)) (and (not (= x9 (x132 x9 x65))) (and (not (= x9 (x132 x9 x85))) (not (= (x132 x9 x96) x9)))))) (and (and (and (and (and (not (= x144 (x132 x144 x47))) (and (and (not (= x144 (x132 x144 x85))) (not (= (x132 x144 x96) x144))) (not (= (x132 x144 x65) x144)))) (not (= (x132 x144 x124) x144))) (and (not (= (x132 x11 x124) x11)) (and (and (and (not (= x11 (x132 x11 x96))) (not (= x11 (x132 x11 x85)))) (not (= x11 (x132 x11 x65)))) (not (= x11 (x132 x11 x47)))))) (and (and (not (= x97 (x132 x97 x47))) (and (not (= (x132 x97 x65) x97)) (and (not (= (x132 x97 x85) x97)) (not (= x97 (x132 x97 x96)))))) (not (= (x132 x97 x124) x97)))) (and (not (= x156 (x132 x156 x124))) (and (and (and (not (= (x132 x156 x85) x156)) (not (= (x132 x156 x96) x156))) (not (= (x132 x156 x65) x156))) (not (= (x132 x156 x47) x156))))))))
(assert (and (or (= x9 (x132 x9 (x132 x9 x9))) (or (or (= (x132 x9 (x132 x9 x97)) x97) (or (= x144 (x132 x9 (x132 x9 x144))) (= x11 (x132 x9 (x132 x9 x11))))) (= (x132 x9 (x132 x9 x156)) x156))) (and (and (or (= x9 (x132 x97 (x132 x97 x9))) (or (or (= x97 (x132 x97 (x132 x97 x97))) (or (= x11 (x132 x97 (x132 x97 x11))) (= x144 (x132 x97 (x132 x97 x144))))) (= (x132 x97 (x132 x97 x156)) x156))) (and (or (= x9 (x132 x144 (x132 x144 x9))) (or (or (= (x132 x144 (x132 x144 x97)) x97) (or (= x144 (x132 x144 (x132 x144 x144))) (= (x132 x144 (x132 x144 x11)) x11))) (= (x132 x144 (x132 x144 x156)) x156))) (or (= (x132 x11 (x132 x11 x9)) x9) (or (or (or (= x11 (x132 x11 (x132 x11 x11))) (= x144 (x132 x11 (x132 x11 x144)))) (= x97 (x132 x11 (x132 x11 x97)))) (= (x132 x11 (x132 x11 x156)) x156))))) (or (= x9 (x132 x156 (x132 x156 x9))) (or (or (= (x132 x156 (x132 x156 x97)) x97) (or (= x11 (x132 x156 (x132 x156 x11))) (= x144 (x132 x156 (x132 x156 x144))))) (= x156 (x132 x156 (x132 x156 x156))))))))
(assert (and (and (not (= (x132 x156 (x132 x156 x156)) x156)) (and (not (= (x132 x97 (x132 x97 x97)) x97)) (and (not (= x11 (x132 x11 (x132 x11 x11)))) (not (= (x132 x144 (x132 x144 x144)) x144))))) (not (= x9 (x132 x9 (x132 x9 x9))))))
(assert (let ((x50 (x132 x144 x97)) (x136 (x132 x97 x144)) (x28 (= x9 (x132 x9 x9))) (x36 (x132 x11 x156)) (x59 (x132 x9 x144)) (x55 (x132 x144 x9)) (x47 (= x144 (x132 x144 x144))) (x22 (x132 x11 x97)) (x138 (x132 x144 x156)) (x96 (= x11 (x132 x11 x11))) (x150 (x132 x97 x156)) (x107 (x132 x9 x97)) (x83 (x132 x156 x144)) (x79 (= x97 (x132 x97 x97))) (x61 (x132 x9 x11)) (x65 (x132 x11 x144)) (x104 (x132 x156 x97)) (x25 (x132 x97 x9)) (x72 (x132 x9 x156)) (x39 (x132 x11 x9)) (x124 (x132 x97 x11)) (x37 (x132 x156 x9)) (x139 (x132 x156 x11)) (x85 (x132 x144 x11)) (x6 (= (x132 x156 x156) x156))) (or (or (or (or (and (= x107 x9) (= x25 x9)) (or (and (= x9 x61) (= x39 x9)) (and (= x59 x9) (= x9 x55)))) (and (= x37 x9) (= x9 x72))) (and x28 x28)) (or (or (and (= x156 x72) (= x37 x156)) (or (or (or (and (= x83 x156) (= x156 x138)) (and (= x156 x36) (= x156 x139))) (and (= x150 x156) (= x156 x104))) (and x6 x6))) (or (or (and (= x25 x97) (= x97 x107)) (or (or (or (and (= x97 x124) (= x97 x22)) (and (= x97 x136) (= x97 x50))) (and x79 x79)) (and (= x97 x150) (= x97 x104)))) (or (or (or (or (or (and (= x11 x65) (= x85 x11)) (and x96 x96)) (and (= x22 x11) (= x124 x11))) (and (= x139 x11) (= x36 x11))) (and (= x11 x39) (= x11 x61))) (or (and (= x59 x144) (= x144 x55)) (or (and (= x144 x83) (= x144 x138)) (or (or (and x47 x47) (and (= x144 x65) (= x144 x85))) (and (= x144 x136) (= x144 x50)))))))))))
(assert (let ((x39 (x132 x97 x156)) (x85 (x132 x144 x11)) (x25 (x132 x144 x9)) (x6 (x132 x11 x156)) (x37 (x132 x156 x9)) (x65 (x132 x97 x11)) (x150 (x132 x9 x97)) (x96 (x132 x11 x11)) (x139 (x132 x9 x144)) (x79 (x132 x156 x144)) (x59 (x132 x156 x156)) (x136 (x132 x144 x144)) (x124 (x132 x9 x11)) (x61 (x132 x144 x156)) (x104 (x132 x156 x97)) (x83 (x132 x144 x97)) (x36 (x132 x11 x97)) (x22 (x132 x11 x144)) (x50 (x132 x97 x144)) (x55 (x132 x9 x156)) (x138 (x132 x97 x97)) (x28 (x132 x9 x9)) (x72 (x132 x97 x9)) (x47 (x132 x156 x11)) (x107 (x132 x11 x9))) (and (and (and (and (and (not (= x55 x150)) (and (and (not (= x139 x55)) (and (and (and (not (= x124 x55)) (and (not (= x150 x124)) (not (= x124 x139)))) (not (= x28 x124))) (not (= x139 x150)))) (not (= x28 x139)))) (not (= x150 x28))) (not (= x28 x55))) (and (and (and (not (= x104 x37)) (and (and (not (= x79 x37)) (and (not (= x79 x59)) (and (not (= x79 x104)) (and (and (and (not (= x47 x104)) (not (= x47 x79))) (not (= x59 x47))) (not (= x47 x37)))))) (not (= x104 x59)))) (not (= x37 x59))) (and (and (and (and (and (and (and (and (not (= x72 x65)) (and (not (= x39 x65)) (and (not (= x65 x50)) (not (= x138 x65))))) (not (= x138 x50))) (not (= x50 x39))) (not (= x72 x50))) (not (= x39 x138))) (not (= x138 x72))) (not (= x72 x39))) (and (and (not (= x6 x107)) (and (not (= x36 x107)) (and (not (= x36 x6)) (and (and (not (= x22 x6)) (and (and (and (and (not (= x96 x36)) (not (= x96 x22))) (not (= x6 x96))) (not (= x96 x107))) (not (= x36 x22)))) (not (= x22 x107)))))) (and (and (not (= x83 x25)) (and (and (not (= x25 x136)) (and (not (= x61 x136)) (and (not (= x83 x136)) (and (and (not (= x85 x61)) (and (not (= x136 x85)) (not (= x85 x83)))) (not (= x25 x85)))))) (not (= x61 x83)))) (not (= x25 x61))))))) (and (and (not (= x28 x37)) (and (and (not (= x72 x37)) (and (not (= x25 x28)) (and (and (and (and (not (= x37 x107)) (and (not (= x107 x25)) (not (= x72 x107)))) (not (= x107 x28))) (not (= x72 x25))) (not (= x37 x25))))) (not (= x28 x72)))) (and (and (not (= x59 x55)) (and (not (= x55 x39)) (and (not (= x59 x39)) (and (not (= x55 x61)) (and (not (= x59 x61)) (and (not (= x61 x39)) (and (not (= x55 x6)) (and (and (not (= x39 x6)) (not (= x6 x61))) (not (= x59 x6)))))))))) (and (and (and (and (and (and (and (not (= x136 x79)) (and (and (not (= x139 x22)) (and (not (= x79 x22)) (and (not (= x136 x22)) (not (= x50 x22))))) (not (= x50 x136)))) (not (= x136 x139))) (not (= x79 x50))) (not (= x50 x139))) (not (= x79 x139))) (and (not (= x124 x47)) (and (and (and (and (not (= x85 x47)) (and (not (= x85 x65)) (and (not (= x124 x96)) (and (not (= x96 x47)) (and (not (= x96 x85)) (not (= x96 x65))))))) (not (= x85 x124))) (not (= x65 x47))) (not (= x124 x65))))) (and (and (and (not (= x104 x138)) (and (and (and (not (= x138 x83)) (and (and (and (not (= x138 x36)) (not (= x36 x83))) (not (= x104 x36))) (not (= x150 x36)))) (not (= x104 x83))) (not (= x150 x83)))) (not (= x138 x150))) (not (= x150 x104)))))))))
(assert (or (or (or (and (and (and (not (= (x132 x97 x97) x97)) (and (not (= (x132 x97 x11) x11)) (not (= x144 (x132 x97 x144))))) (not (= (x132 x97 x156) x156))) (not (= x9 (x132 x97 x9)))) (or (and (and (not (= x156 (x132 x11 x156))) (and (and (not (= x144 (x132 x11 x144))) (not (= (x132 x11 x11) x11))) (not (= (x132 x11 x97) x97)))) (not (= (x132 x11 x9) x9))) (and (not (= x9 (x132 x144 x9))) (and (not (= x156 (x132 x144 x156))) (and (and (not (= (x132 x144 x144) x144)) (not (= x11 (x132 x144 x11)))) (not (= (x132 x144 x97) x97))))))) (and (not (= (x132 x156 x9) x9)) (and (and (not (= (x132 x156 x97) x97)) (and (not (= x144 (x132 x156 x144))) (not (= (x132 x156 x11) x11)))) (not (= (x132 x156 x156) x156))))) (and (and (and (not (= x97 (x132 x9 x97))) (and (not (= (x132 x9 x144) x144)) (not (= x11 (x132 x9 x11))))) (not (= (x132 x9 x156) x156))) (not (= (x132 x9 x9) x9)))))
(assert (or (or (and (and (not (= x156 (x132 (x132 x156 x156) x156))) (and (not (= (x132 (x132 x97 x156) x97) x156)) (and (not (= x156 (x132 (x132 x11 x156) x11))) (not (= x156 (x132 (x132 x144 x156) x144)))))) (not (= (x132 (x132 x9 x156) x9) x156))) (or (and (not (= x97 (x132 (x132 x9 x97) x9))) (and (not (= (x132 (x132 x156 x97) x156) x97)) (and (not (= x97 (x132 (x132 x97 x97) x97))) (and (not (= x97 (x132 (x132 x144 x97) x144))) (not (= (x132 (x132 x11 x97) x11) x97)))))) (or (and (and (and (not (= x11 (x132 (x132 x97 x11) x97))) (and (not (= x11 (x132 (x132 x11 x11) x11))) (not (= (x132 (x132 x144 x11) x144) x11)))) (not (= (x132 (x132 x156 x11) x156) x11))) (not (= (x132 (x132 x9 x11) x9) x11))) (and (and (and (and (not (= x144 (x132 (x132 x144 x144) x144))) (not (= x144 (x132 (x132 x11 x144) x11)))) (not (= (x132 (x132 x97 x144) x97) x144))) (not (= (x132 (x132 x156 x144) x156) x144))) (not (= (x132 (x132 x9 x144) x9) x144)))))) (and (and (and (and (not (= (x132 (x132 x144 x9) x144) x9)) (not (= x9 (x132 (x132 x11 x9) x11)))) (not (= (x132 (x132 x97 x9) x97) x9))) (not (= x9 (x132 (x132 x156 x9) x156)))) (not (= x9 (x132 (x132 x9 x9) x9))))))
(assert (let ((x25 (x132 x144 x9)) (x45 (x132 x9 x144)) (x33 (x132 x9 x156)) (x106 (x132 x9 x9)) (x124 (x132 x11 x156)) (x22 (x132 x11 x9)) (x135 (x132 x97 x97)) (x79 (x132 x97 x11)) (x65 (x132 x11 x144)) (x55 (x132 x144 x97)) (x85 (x132 x11 x11)) (x107 (x132 x144 x156)) (x47 (x132 x11 x97)) (x139 (x132 x156 x11)) (x49 (x132 x156 x156)) (x26 (x132 x156 x9)) (x58 (x132 x156 x97)) (x3 (x132 x9 x97)) (x95 (x132 x97 x9)) (x50 (x132 x144 x11)) (x36 (x132 x9 x11)) (x111 (x132 x156 x144)) (x59 (x132 x144 x144)) (x19 (x132 x97 x156)) (x28 (x132 x97 x144))) (let ((x82 (= x156 x59)) (x134 (= x9 x19)) (x89 (= x156 x135)) (x86 (= x9 x65)) (x6 (= x65 x11)) (x94 (= x36 x9)) (x20 (= x25 x97)) (x75 (= x11 x55)) (x66 (= x79 x97)) (x148 (= x111 x11)) (x123 (= x25 x156)) (x122 (= x144 x106)) (x113 (= x11 x26)) (x84 (= x95 x97)) (x98 (= x139 x144)) (x18 (= x156 x55)) (x81 (= x156 x19)) (x34 (= x156 x3)) (x74 (= x9 x49)) (x23 (= x97 x26)) (x117 (= x144 x49)) (x125 (= x144 x135)) (x78 (= x9 x107)) (x155 (= x156 x95)) (x69 (= x55 x144)) (x146 (= x19 x144)) (x105 (= x144 x33)) (x41 (= x144 x25)) (x16 (= x107 x97)) (x37 (= x59 x144)) (x108 (= x124 x11)) (x35 (= x95 x11)) (x121 (= x97 x59)) (x100 (= x107 x156)) (x137 (= x111 x156)) (x40 (= x22 x156)) (x110 (= x28 x9)) (x57 (= x11 x58)) (x24 (= x47 x11)) (x157 (= x144 x3)) (x109 (= x19 x11)) (x51 (= x26 x144)) (x96 (= x11 x85)) (x151 (= x45 x144)) (x12 (= x26 x9)) (x129 (= x22 x144)) (x71 (= x11 x106)) (x116 (= x11 x79)) (x159 (= x156 x28)) (x30 (= x45 x9)) (x154 (= x55 x9)) (x67 (= x144 x95)) (x92 (= x97 x47)) (x126 (= x135 x9)) (x103 (= x97 x58)) (x145 (= x49 x97)) (x93 (= x156 x49)) (x150 (= x50 x11)) (x21 (= x156 x124)) (x141 (= x19 x97)) (x61 (= x59 x11)) (x54 (= x3 x11)) (x13 (= x55 x97)) (x5 (= x36 x144)) (x114 (= x28 x11)) (x88 (= x65 x97)) (x17 (= x11 x49)) (x52 (= x111 x97)) (x83 (= x85 x97)) (x63 (= x25 x9)) (x46 (= x47 x9)) (x80 (= x156 x106)) (x138 (= x156 x85)) (x130 (= x124 x97)) (x152 (= x11 x36)) (x60 (= x139 x156)) (x112 (= x97 x45)) (x77 (= x33 x11)) (x72 (= x144 x65)) (x120 (= x11 x107)) (x147 (= x111 x144)) (x53 (= x156 x58)) (x99 (= x97 x50)) (x31 (= x97 x139)) (x101 (= x45 x156)) (x38 (= x58 x9)) (x104 (= x9 x85)) (x149 (= x11 x45)) (x4 (= x9 x139)) (x10 (= x33 x97)) (x64 (= x9 x95)) (x8 (= x156 x36)) (x87 (= x144 x28)) (x73 (= x97 x22)) (x29 (= x79 x144)) (x131 (= x135 x11)) (x140 (= x22 x9)) (x76 (= x47 x144)) (x68 (= x79 x156)) (x136 (= x144 x85)) (x143 (= x25 x11)) (x15 (= x47 x156)) (x1 (= x9 x50)) (x43 (= x11 x22)) (x91 (= x135 x97)) (x48 (= x9 x111)) (x115 (= x144 x58)) (x27 (= x124 x144)) (x127 (= x33 x156)) (x153 (= x9 x106)) (x56 (= x9 x33)) (x44 (= x106 x97)) (x102 (= x156 x50)) (x142 (= x97 x36)) (x14 (= x97 x3)) (x62 (= x156 x26)) (x39 (= x144 x50)) (x158 (= x28 x97)) (x2 (= x59 x9)) (x70 (= x9 x3)) (x133 (= x79 x9)) (x42 (= x11 x139)) (x7 (= x124 x9)) (x128 (= x107 x144)) (x90 (= x65 x156))) (and (and (and (and (and (and (and (or (or (or x68 (or x102 x138)) x60) x8) (or (or (or x15 (or x90 x138)) x21) x40)) (and (and (or (or x130 (or (or x88 x83) x92)) x73) (or (or x31 (or (or x83 x99) x66)) x142)) (and (and (or x129 (or x27 (or (or x136 x72) x76))) (or (or (or (or x136 x39) x29) x98) x5)) (and (or (or x42 (or x116 (or x150 x96))) x152) (or (or x108 (or (or x6 x96) x24)) x43))))) (and (or (or (or x46 (or x104 x86)) x7) x140) (or (or x4 (or (or x1 x104) x133)) x94))) (and (and (or (or x78 (or x154 (or x2 x1))) x63) (or (or (or (or x86 x2) x110) x48) x30)) (and (and (and (or (or x52 (or (or x121 x88) x158)) x112) (or (or (or (or x121 x99) x13) x16) x20)) (and (and (or (or (or x114 (or x6 x61)) x148) x149) (or (or (or x75 (or x150 x61)) x120) x143)) (and (or x41 (or x128 (or x69 (or x37 x39)))) (or x151 (or (or x87 (or x37 x72)) x147))))) (and (or x123 (or x100 (or (or x102 x82) x18))) (or x101 (or (or (or x82 x90) x159) x137)))))) (and (and (or (or (or x126 (or x154 x46)) x38) x70) (or (or x134 (or (or x110 x133) x126)) x64)) (and (and (and (and (or (or x115 (or (or x76 x69) x125)) x157) (or (or (or x125 (or x29 x87)) x146) x67)) (and (or x54 (or (or (or x24 x75) x131) x57)) (or (or (or (or x114 x116) x131) x109) x35))) (and (or x84 (or (or (or x158 x66) x91) x141)) (or (or x103 (or (or x92 x13) x91)) x14))) (and (or (or (or (or x15 x18) x89) x53) x34) (or (or (or x89 (or x68 x159)) x81) x155))))) (and (and (or (or (or x38 (or x48 x4)) x74) x12) (or x56 (or x74 (or (or x7 x78) x134)))) (and (and (and (or x23 (or x145 (or x103 (or x52 x31)))) (or (or (or x141 (or x130 x16)) x145) x10)) (and (and (or x51 (or x117 (or (or x98 x147) x115))) (or (or x117 (or x146 (or x128 x27))) x105)) (and (or x113 (or x17 (or x57 (or x42 x148)))) (or x77 (or (or x109 (or x108 x120)) x17))))) (and (or (or (or x53 (or x137 x60)) x93) x62) (or x127 (or x93 (or x81 (or x21 x100)))))))) (and (and (or x153 (or (or (or x63 x140) x64) x12)) (or x153 (or x56 (or (or x94 x30) x70)))) (and (and (or (or (or (or x8 x101) x34) x127) x80) (or x80 (or x62 (or (or x40 x123) x155)))) (and (and (or x44 (or (or (or x20 x73) x84) x23)) (or (or (or (or x112 x142) x14) x10) x44)) (and (and (or x71 (or (or (or x43 x143) x35) x113)) (or x71 (or (or x54 (or x149 x152)) x77))) (and (or (or (or (or x41 x129) x67) x51) x122) (or (or x105 (or x157 (or x5 x151))) x122))))))))))
(assert (let ((x114 (x132 x144 x144)) (x87 (x132 x156 x144)) (x158 (x132 x156 x97)) (x99 (x132 x11 x144)) (x111 (x132 x11 x11)) (x154 (x132 x9 x156)) (x102 (x132 x97 x11)) (x29 (x132 x144 x156)) (x66 (x132 x97 x156)) (x86 (x132 x9 x11)) (x92 (x132 x97 x9)) (x135 (x132 x144 x9)) (x13 (x132 x9 x97)) (x58 (x132 x97 x97)) (x98 (x132 x9 x9)) (x46 (x132 x156 x9)) (x121 (x132 x11 x97)) (x75 (x132 x144 x97)) (x133 (x132 x156 x156)) (x131 (x132 x97 x144)) (x90 (x132 x11 x156)) (x88 (x132 x144 x11)) (x19 (x132 x9 x144)) (x1 (x132 x11 x9)) (x82 (x132 x156 x11))) (let ((x124 (not (= x11 x102))) (x138 (not (= x11 x29))) (x94 (not (= x86 x9))) (x125 (not (= x144 x75))) (x2 (not (= x88 x144))) (x81 (not (= x97 x13))) (x85 (not (= x88 x11))) (x72 (not (= x11 x154))) (x104 (not (= x158 x11))) (x35 (not (= x90 x156))) (x24 (not (= x114 x144))) (x38 (not (= x97 x98))) (x67 (not (= x13 x156))) (x42 (not (= x144 x1))) (x107 (not (= x13 x11))) (x89 (not (= x66 x144))) (x91 (not (= x144 x82))) (x25 (not (= x92 x11))) (x33 (not (= x75 x97))) (x45 (not (= x144 x111))) (x53 (not (= x97 x1))) (x141 (not (= x97 x158))) (x149 (not (= x121 x156))) (x74 (not (= x114 x156))) (x64 (not (= x154 x9))) (x83 (not (= x87 x11))) (x110 (not (= x144 x133))) (x128 (not (= x102 x97))) (x31 (not (= x58 x97))) (x5 (not (= x158 x156))) (x14 (not (= x111 x9))) (x50 (not (= x75 x11))) (x96 (not (= x111 x11))) (x61 (not (= x11 x86))) (x130 (not (= x87 x97))) (x100 (not (= x97 x135))) (x93 (not (= x97 x92))) (x18 (not (= x144 x158))) (x115 (not (= x111 x97))) (x20 (not (= x114 x9))) (x49 (not (= x88 x97))) (x7 (not (= x111 x156))) (x36 (not (= x11 x90))) (x103 (not (= x90 x97))) (x129 (not (= x156 x19))) (x34 (not (= x82 x9))) (x79 (not (= x58 x11))) (x41 (not (= x156 x135))) (x148 (not (= x19 x144))) (x147 (not (= x98 x144))) (x26 (not (= x97 x99))) (x142 (not (= x46 x156))) (x30 (not (= x1 x9))) (x77 (not (= x75 x156))) (x28 (not (= x11 x98))) (x48 (not (= x46 x97))) (x23 (not (= x121 x9))) (x60 (not (= x97 x133))) (x159 (not (= x87 x144))) (x117 (not (= x97 x131))) (x126 (not (= x144 x86))) (x15 (not (= x144 x29))) (x54 (not (= x156 x131))) (x10 (not (= x9 x88))) (x137 (not (= x97 x86))) (x69 (not (= x131 x144))) (x59 (not (= x11 x19))) (x127 (not (= x90 x9))) (x6 (not (= x11 x133))) (x27 (not (= x97 x114))) (x56 (not (= x9 x135))) (x43 (not (= x156 x58))) (x8 (not (= x9 x75))) (x44 (not (= x131 x9))) (x40 (not (= x87 x9))) (x153 (not (= x9 x98))) (x73 (not (= x9 x99))) (x112 (not (= x156 x98))) (x22 (not (= x121 x11))) (x122 (not (= x156 x154))) (x143 (not (= x82 x156))) (x151 (not (= x156 x66))) (x70 (not (= x19 x9))) (x4 (not (= x154 x97))) (x84 (not (= x9 x102))) (x105 (not (= x86 x156))) (x120 (not (= x144 x92))) (x71 (not (= x29 x156))) (x63 (not (= x92 x9))) (x3 (not (= x144 x58))) (x134 (not (= x156 x99))) (x57 (not (= x144 x135))) (x39 (not (= x11 x1))) (x146 (not (= x121 x97))) (x21 (not (= x97 x19))) (x76 (not (= x121 x144))) (x68 (not (= x90 x144))) (x157 (not (= x133 x156))) (x140 (not (= x9 x13))) (x150 (not (= x66 x11))) (x109 (not (= x154 x144))) (x145 (not (= x97 x66))) (x95 (not (= x102 x144))) (x52 (not (= x97 x82))) (x155 (not (= x158 x9))) (x106 (not (= x1 x156))) (x139 (not (= x11 x82))) (x37 (not (= x11 x46))) (x113 (not (= x156 x87))) (x101 (not (= x9 x58))) (x108 (not (= x144 x13))) (x123 (not (= x29 x9))) (x55 (not (= x11 x135))) (x116 (not (= x144 x99))) (x16 (not (= x29 x97))) (x65 (not (= x11 x99))) (x51 (not (= x92 x156))) (x17 (not (= x144 x46))) (x136 (not (= x11 x131))) (x47 (not (= x11 x114))) (x80 (not (= x9 x133))) (x12 (not (= x46 x9))) (x152 (not (= x156 x102))) (x62 (not (= x66 x9))) (x78 (not (= x156 x88)))) (or (and (and (and (or x64 x12) (and (or x140 x63) (and (or x94 x30) (or x56 x70)))) (or x153 x153)) (and (and (and (and (or x62 x155) (and (and (or x84 x23) (or x44 x8)) (or x101 x101))) (or x140 x63)) (and (and (or x94 x30) (and (and (and (or x14 x14) (or x73 x10)) (or x84 x23)) (or x34 x127))) (and (or x56 x70) (and (or x123 x40) (and (and (or x10 x73) (or x20 x20)) (or x8 x44)))))) (and (or x64 x12) (and (or x80 x80) (and (and (or x123 x40) (or x127 x34)) (or x155 x62)))))) (or (or (or (and (and (and (or x37 x72) (and (and (or x104 x150) (and (or x83 x138) (or x36 x139))) (or x6 x6))) (and (and (and (or x39 x61) (and (and (and (or x96 x96) (or x85 x65)) (or x124 x22)) (or x139 x36))) (and (and (and (or x136 x50) (and (or x47 x47) (or x65 x85))) (or x138 x83)) (or x59 x55))) (and (and (or x104 x150) (and (and (or x136 x50) (or x124 x22)) (or x79 x79))) (or x25 x107)))) (and (or x28 x28) (and (and (or x25 x107) (and (or x61 x39) (or x59 x55))) (or x37 x72)))) (and (and (and (and (and (and (or x91 x68) (and (and (or x45 x45) (or x2 x116)) (or x76 x95))) (or x42 x126)) (and (and (and (and (or x24 x24) (or x116 x2)) (or x69 x125)) (or x15 x159)) (or x148 x57))) (and (or x108 x120) (and (and (or x3 x3) (and (or x95 x76) (or x69 x125))) (or x18 x89)))) (and (or x17 x109) (and (and (or x18 x89) (and (or x15 x159) (or x91 x68))) (or x110 x110)))) (and (or x147 x147) (and (and (or x108 x120) (and (or x148 x57) (or x126 x42))) (or x17 x109))))) (and (and (and (or x4 x48) (and (or x93 x81) (and (or x53 x137) (or x21 x100)))) (or x38 x38)) (and (and (and (or x93 x81) (and (and (and (or x33 x117) (or x128 x146)) (or x31 x31)) (or x145 x141))) (and (and (or x137 x53) (and (and (or x146 x128) (and (or x49 x26) (or x115 x115))) (or x103 x52))) (and (or x100 x21) (and (or x16 x130) (and (and (or x27 x27) (or x49 x26)) (or x33 x117)))))) (and (or x4 x48) (and (and (and (or x103 x52) (or x16 x130)) (or x141 x145)) (or x60 x60)))))) (and (and (and (or x122 x142) (and (or x157 x157) (and (or x151 x5) (and (or x71 x113) (or x35 x143))))) (and (and (and (and (or x113 x71) (and (and (or x78 x134) (or x74 x74)) (or x77 x54))) (or x41 x129)) (and (and (or x143 x35) (and (and (or x134 x78) (or x7 x7)) (or x152 x149))) (or x105 x106))) (and (or x67 x51) (and (or x5 x151) (and (or x43 x43) (and (or x149 x152) (or x54 x77))))))) (and (and (and (or x51 x67) (and (or x41 x129) (or x106 x105))) (or x142 x122)) (or x112 x112))))))))
(assert (or (or (and (not (= x9 (x132 (x132 x9 x156) x156))) (and (and (and (not (= (x132 (x132 x11 x156) x156) x11)) (not (= (x132 (x132 x144 x156) x156) x144))) (not (= x97 (x132 (x132 x97 x156) x156)))) (not (= x156 (x132 (x132 x156 x156) x156))))) (or (or (and (not (= (x132 (x132 x9 x144) x144) x9)) (and (and (and (not (= x144 (x132 (x132 x144 x144) x144))) (not (= x11 (x132 (x132 x11 x144) x144)))) (not (= (x132 (x132 x97 x144) x144) x97))) (not (= x156 (x132 (x132 x156 x144) x144))))) (and (not (= x9 (x132 (x132 x9 x11) x11))) (and (and (not (= (x132 (x132 x97 x11) x11) x97)) (and (not (= (x132 (x132 x144 x11) x11) x144)) (not (= x11 (x132 (x132 x11 x11) x11))))) (not (= x156 (x132 (x132 x156 x11) x11)))))) (and (and (not (= x156 (x132 (x132 x156 x97) x97))) (and (not (= x97 (x132 (x132 x97 x97) x97))) (and (not (= x11 (x132 (x132 x11 x97) x97))) (not (= (x132 (x132 x144 x97) x97) x144))))) (not (= x9 (x132 (x132 x9 x97) x97)))))) (and (not (= (x132 (x132 x9 x9) x9) x9)) (and (and (and (not (= x11 (x132 (x132 x11 x9) x9))) (not (= (x132 (x132 x144 x9) x9) x144))) (not (= x97 (x132 (x132 x97 x9) x9)))) (not (= (x132 (x132 x156 x9) x9) x156))))))
(assert (and (= (x132 x144 x144) x156) (and (and (= x11 (x132 x9 x9)) (= x144 (x132 x9 x11))) (= (x132 x156 x11) x97))))
(assert (let ((x83 (x132 x97 x144)) (x39 (x132 x156 x97)) (x50 (x132 x144 x97)) (x61 (x132 x156 x144)) (x55 (x132 x156 x9)) (x124 (x132 x11 x9)) (x139 (x132 x144 x9)) (x138 (x132 x97 x97)) (x107 (x132 x9 x11)) (x36 (x132 x97 x11)) (x47 (x132 x11 x156)) (x104 (x132 x97 x156)) (x59 (x132 x156 x156)) (x25 (x132 x9 x144)) (x6 (x132 x156 x11)) (x37 (x132 x9 x156)) (x150 (x132 x97 x9)) (x96 (x132 x11 x11)) (x22 (x132 x144 x11)) (x79 (x132 x144 x156)) (x72 (x132 x9 x97)) (x65 (x132 x11 x97)) (x136 (x132 x144 x144)) (x85 (x132 x11 x144)) (x28 (x132 x9 x9))) (and (and (and (and (and (and (and (and (or (or (or (= x96 x97) (or (= x96 x144) (= x96 x11))) (= x156 x96)) (= x96 x9)) (or (= x85 x9) (or (= x156 x85) (or (= x85 x97) (or (= x85 x11) (= x144 x85)))))) (or (or (or (= x65 x97) (or (= x65 x144) (= x11 x65))) (= x156 x65)) (= x9 x65))) (or (or (or (= x97 x47) (or (= x47 x11) (= x47 x144))) (= x47 x156)) (= x47 x9))) (or (= x124 x9) (or (or (= x97 x124) (or (= x144 x124) (= x11 x124))) (= x124 x156)))) (and (or (= x139 x9) (or (= x156 x139) (or (or (= x139 x144) (= x139 x11)) (= x97 x139)))) (and (and (or (or (= x156 x50) (or (= x97 x50) (or (= x50 x144) (= x11 x50)))) (= x9 x50)) (and (or (= x9 x136) (or (= x156 x136) (or (= x97 x136) (or (= x136 x11) (= x136 x144))))) (or (= x22 x9) (or (= x22 x156) (or (= x22 x97) (or (= x22 x11) (= x144 x22))))))) (or (or (= x156 x79) (or (= x97 x79) (or (= x144 x79) (= x11 x79)))) (= x79 x9))))) (and (or (or (or (= x97 x150) (or (= x11 x150) (= x150 x144))) (= x150 x156)) (= x9 x150)) (and (or (= x104 x9) (or (= x156 x104) (or (= x104 x97) (or (= x144 x104) (= x11 x104))))) (and (or (or (= x156 x138) (or (or (= x138 x144) (= x11 x138)) (= x138 x97))) (= x138 x9)) (and (or (or (or (or (= x83 x144) (= x83 x11)) (= x97 x83)) (= x83 x156)) (= x9 x83)) (or (= x9 x36) (or (or (= x36 x97) (or (= x144 x36) (= x36 x11))) (= x156 x36)))))))) (and (and (and (and (or (or (= x156 x61) (or (= x97 x61) (or (= x61 x11) (= x144 x61)))) (= x61 x9)) (or (or (= x156 x6) (or (= x6 x97) (or (= x6 x11) (= x6 x144)))) (= x9 x6))) (or (= x39 x9) (or (= x39 x156) (or (or (= x39 x144) (= x11 x39)) (= x97 x39))))) (or (= x59 x9) (or (or (or (= x59 x144) (= x59 x11)) (= x97 x59)) (= x59 x156)))) (or (= x55 x9) (or (or (= x97 x55) (or (= x55 x11) (= x144 x55))) (= x156 x55))))) (and (and (and (or (or (or (= x97 x72) (or (= x144 x72) (= x11 x72))) (= x156 x72)) (= x9 x72)) (and (or (or (= x156 x107) (or (= x107 x97) (or (= x107 x11) (= x107 x144)))) (= x9 x107)) (or (or (= x156 x25) (or (or (= x25 x11) (= x144 x25)) (= x97 x25))) (= x9 x25)))) (or (= x37 x9) (or (= x156 x37) (or (= x37 x97) (or (= x144 x37) (= x11 x37)))))) (or (= x28 x9) (or (or (or (= x144 x28) (= x28 x11)) (= x28 x97)) (= x156 x28)))))))
(assert (let ((x55 (x132 x9 x156)) (x107 (x132 x11 x9)) (x37 (x132 x156 x9)) (x22 (x132 x11 x144)) (x136 (x132 x144 x144)) (x124 (x132 x9 x11)) (x83 (x132 x144 x97)) (x72 (x132 x97 x9)) (x104 (x132 x156 x97)) (x61 (x132 x144 x156)) (x138 (x132 x97 x97)) (x39 (x132 x97 x156)) (x25 (x132 x144 x9)) (x36 (x132 x11 x97)) (x85 (x132 x144 x11)) (x96 (x132 x11 x11)) (x150 (x132 x9 x97)) (x6 (x132 x11 x156)) (x59 (x132 x156 x156)) (x28 (x132 x9 x9)) (x79 (x132 x156 x144)) (x47 (x132 x156 x11)) (x65 (x132 x97 x11)) (x50 (x132 x97 x144)) (x139 (x132 x9 x144))) (and (or (= x9 (x132 x28 x28)) (or (or (or (= (x132 x107 x107) x11) (= (x132 x25 x25) x144)) (= (x132 x72 x72) x97)) (= x156 (x132 x37 x37)))) (and (or (= (x132 x55 x55) x9) (or (= x156 (x132 x59 x59)) (or (or (= x11 (x132 x6 x6)) (= (x132 x61 x61) x144)) (= (x132 x39 x39) x97)))) (and (and (or (= (x132 x139 x139) x9) (or (= x156 (x132 x79 x79)) (or (or (= (x132 x22 x22) x11) (= x144 (x132 x136 x136))) (= x97 (x132 x50 x50))))) (or (= (x132 x124 x124) x9) (or (= (x132 x47 x47) x156) (or (= (x132 x65 x65) x97) (or (= (x132 x85 x85) x144) (= x11 (x132 x96 x96))))))) (or (= (x132 x150 x150) x9) (or (= (x132 x104 x104) x156) (or (or (= (x132 x83 x83) x144) (= x11 (x132 x36 x36))) (= x97 (x132 x138 x138))))))))))
(assert (not (and (= x11 (x132 x9 x9)) (and (= x97 (x132 x9 x156)) (and (and (= x9 (x132 x9 x144)) (and (= (x132 x9 x11) x144) (and (= (x132 x156 x9) x156) (and (= x11 (x132 x156 x156)) (and (= (x132 x156 x97) x9) (and (and (= (x132 x156 x11) x97) (and (and (and (= x11 (x132 x97 x97)) (and (= (x132 x97 x144) x97) (and (and (and (and (and (= x156 (x132 x144 x144)) (and (and (and (and (= (x132 x11 x97) x97) (and (= (x132 x11 x11) x156) (= x11 (x132 x11 x144)))) (= (x132 x11 x156) x144)) (= x9 (x132 x11 x9))) (= (x132 x144 x11) x11))) (= (x132 x144 x97) x144)) (= x9 (x132 x144 x156))) (= x97 (x132 x144 x9))) (= (x132 x97 x11) x9)))) (= x156 (x132 x97 x156))) (= (x132 x97 x9) x144))) (= x144 (x132 x156 x144)))))))) (= (x132 x9 x97) x156))))))
(assert (or (and (and (and (and (not (= x9 (x132 x144 (x132 x9 x144)))) (not (= (x132 x11 (x132 x9 x11)) x9))) (not (= (x132 x97 (x132 x9 x97)) x9))) (not (= (x132 x156 (x132 x9 x156)) x9))) (not (= x9 (x132 x9 (x132 x9 x9))))) (or (or (or (and (and (and (not (= (x132 x97 (x132 x144 x97)) x144)) (and (not (= x144 (x132 x11 (x132 x144 x11)))) (not (= (x132 x144 (x132 x144 x144)) x144)))) (not (= (x132 x156 (x132 x144 x156)) x144))) (not (= x144 (x132 x9 (x132 x144 x9))))) (and (and (not (= x11 (x132 x156 (x132 x11 x156)))) (and (not (= (x132 x97 (x132 x11 x97)) x11)) (and (not (= x11 (x132 x144 (x132 x11 x144)))) (not (= (x132 x11 (x132 x11 x11)) x11))))) (not (= (x132 x9 (x132 x11 x9)) x11)))) (and (not (= (x132 x9 (x132 x97 x9)) x97)) (and (not (= x97 (x132 x156 (x132 x97 x156)))) (and (and (not (= (x132 x11 (x132 x97 x11)) x97)) (not (= x97 (x132 x144 (x132 x97 x144))))) (not (= (x132 x97 (x132 x97 x97)) x97)))))) (and (and (and (and (not (= (x132 x144 (x132 x156 x144)) x156)) (not (= x156 (x132 x11 (x132 x156 x11))))) (not (= (x132 x97 (x132 x156 x97)) x156))) (not (= (x132 x156 (x132 x156 x156)) x156))) (not (= (x132 x9 (x132 x156 x9)) x156))))))
(assert (let ((x47 (x132 x156 x156)) (x124 (x132 x9 x9)) (x65 (x132 x97 x97)) (x85 (x132 x144 x144)) (x96 (x132 x11 x11))) (or (and (not (= x9 x124)) (and (not (= x47 x9)) (and (and (not (= x96 x9)) (not (= x9 x85))) (not (= x9 x65))))) (or (or (and (not (= x97 x124)) (and (and (and (not (= x97 x96)) (not (= x85 x97))) (not (= x97 x65))) (not (= x97 x47)))) (or (and (not (= x124 x144)) (and (and (not (= x65 x144)) (and (not (= x85 x144)) (not (= x144 x96)))) (not (= x47 x144)))) (and (and (and (not (= x11 x65)) (and (not (= x11 x96)) (not (= x85 x11)))) (not (= x47 x11))) (not (= x11 x124))))) (and (not (= x156 x124)) (and (not (= x47 x156)) (and (not (= x156 x65)) (and (not (= x96 x156)) (not (= x156 x85))))))))))
(check-sat)
(exit)
